(declare-fun var0 () String)
(assert (str.in.re var0 (re.++ (re.+ (re.* (str.to.re "O"))) (re.++ (re.+ (re.+ (str.to.re "N"))) (re.++ (re.* (re.union (str.to.re "L") (str.to.re "MMM"))) (re.++ (re.+ (re.union (str.to.re "J") (str.to.re "K"))) (re.++ (re.+ (re.* (str.to.re "II"))) (re.++ (re.+ (re.* (str.to.re "HH"))) (re.++ (re.union (re.union (str.to.re "E") (str.to.re "F")) (re.* (str.to.re "G"))) (re.++ (re.+ (re.* (str.to.re "D"))) (re.++ (re.* (re.union (str.to.re "BB") (str.to.re "CCC"))) (re.++ (re.+ (re.* (str.to.re "AAA"))) (re.++ (re.union (re.union (str.to.re "xx") (str.to.re "yyy")) (re.* (str.to.re "zzz"))) (re.++ (re.+ (re.union (str.to.re "vvv") (str.to.re "www"))) (re.++ (re.* (re.* (str.to.re "u"))) (re.++ (re.union (re.* (str.to.re "sss")) (re.+ (str.to.re "tt"))) (re.++ (re.+ (re.+ (str.to.re "rrr"))) (re.++ (re.union (re.+ (str.to.re "p")) (re.* (str.to.re "qq"))) (re.++ (re.* (re.+ (str.to.re "ooo"))) (re.++ (re.* (re.* (str.to.re "nn"))) (re.++ (re.union (re.union (str.to.re "kk") (str.to.re "l")) (re.+ (str.to.re "mmm"))) (re.++ (re.+ (re.union (str.to.re "i") (str.to.re "jjj"))) (re.++ (re.+ (re.union (str.to.re "ggg") (str.to.re "hh"))) (re.++ (re.+ (re.union (str.to.re "e") (str.to.re "ff"))) (re.++ (re.* (re.union (str.to.re "c") (str.to.re "ddd"))) (re.++ (re.+ (re.+ (str.to.re "b"))) (re.++ (re.+ (re.* (str.to.re "aa"))) (re.++ (re.+ (re.union (str.to.re "88") (str.to.re "999"))) (re.++ (re.+ (re.* (str.to.re "77"))) (re.++ (re.* (re.+ (str.to.re "666"))) (re.++ (re.union (re.* (str.to.re "3")) (re.union (str.to.re "444") (str.to.re "555"))) (re.++ (re.* (re.* (str.to.re "22"))) (re.* (re.union (str.to.re "0") (str.to.re "111")))))))))))))))))))))))))))))))))))
(check-sat)